00
00
00
00
00
00
00
00
00
00
00
00
00
00
00
00
00
00
00
00
00
00
00
00
00
00
00
00
00
00
00
00
00
00
00
00
00
00
00
00
00
00
00
00
00
00
00
00
00
00
00
00
00
00
00
00
00
00
00
00
00
00
00
00
00
00
00
00
00
00
00
00
00
00
00
00
00
00
00
00
00
00
00
00
00
00
00
00
00
00
00
00
00
00
00
00
00
00
00
00
00
00
00
00
00
00
00
00
00
00
00
00
00
00
00
00
00
00
00
00
00
00
00
00
00
00
00
00
00
00
00
00
00
00
00
00
00
00
00
00
00
00
00
00
00
00
00
00
00
00
00
00
00
00
00
00
00
00
00
00
00
00
00
00
00
00
00
00
00
00
00
00
00
00
00
00
00
00
00
00
00
00
00
00
00
00
00
00
00
00
00
00
00
00
00
00
00
00
00
00
00
00
00
00
00
00
00
00
00
00
00
00
00
00
00
00
00
00
00
00
00
00
00
00
00
00
00
00
00
00
00
00
00
00
00
00
00
00
00
00
00
00
00
00
00
00
00
00
00
00
00
00
00
00
00
00
00
00
00
00
00
00
00
00
00
00
00
00
00
00
00
00
00
00
00
00
00
00
00
00
00
00
00
00
00
00
00
00
00
00
00
00
00
00
00
00
00
00
00
00
00
00
00
00
00
00
00
00
00
00
00
00
00
00
00
00
00
00
00
00
00
00
00
00
00
00
00
00
00
00
00
00
00
00
00
00
00
00
00
00
00
00
00
00
00
00
00
00
00
00
00
00
00
00
00
00
00
00
00
00
00
00
00
00
00
00
00
00
00
00
00
00
00
00
00
00
00
00
00
00
00
00
00
00
00
00
00
00
00
00
00
00
00
00
00
00
00
00
00
00
00
00
00
00
00
00
00
00
00
00
00
00
00
00
00
00
00
00
00
00
00
00
00
00
00
00
00
00
00
00
00
00
00
00
00
00
00
00
00
00
00
00
00
00
00
00
00
00
00
00
00
00
00
00
00
00
00
00
00
00
00
00
00
00
00
00
00
00
00
00
00
00
00
00
00
00
00
00
00
00
00
00
00
00
00
00
00
00
00
00
00
00
00
00
00
00
00
00
00
00
00
00
00
00
00
00
00
00
00
00
00
00
00
00
00
00
00
00
00
00
00
00
00
00
00
00
00
00
00
00
00
00
00
00
00
00
00
00
00
00
00
00
00
00
00
00
00
00
00
00
00
00
00
00
00
00
00
00
00
00
00
00
00
00
00
00
00
00
00
00
00
00
00
00
00
00
00
00
00
00
00
00
00
00
00
00
00
00
00
00
00
00
00
00
00
00
00
00
00
00
00
00
00
00
00
00
00
00
00
00
00
00
00
00
00
00
00
00
00
00
00
00
00
00
00
00
00
00
00
00
00
00
00
00
00
00
00
00
00
00
00
00
00
00
00
00
00
00
00
00
00
00
00
00
00
00
00
00
00
00
00
00
00
00
00
00
00
00
00
00
00
00
00
00
00
00
00
00
00
00
00
00
00
00
00
00
00
00
00
00
00
00
00
00
00
00
00
00
00
00
00
00
00
00
00
00
00
00
00
00
00
00
00
00
00
00
00
00
00
00
00
00
00
00
00
00
00
00
00
00
00
00
00
00
00
00
00
00
00
00
00
00
00
00
00
00
00
00
00
00
00
00
00
00
00
00
00
00
00
00
00
00
00
00
00
00
00
00
00
00
00
00
00
00
00
00
00
00
00
00
00
00
00
00
00
00
00
00
00
00
00
00
00
00
00
00
00
00
00
00
00
00
00
00
00
00
00
00
00
00
00
00
00
00
00
00
00
00
00
00
00
00
00
00
00
00
00
00
00
00
00
00
00
00
00
00
00
00
00
00
00
00
00
00
00
00
00
00
00
00
00
00
00
00
00
00
00
00
00
00
00
00
00
00
00
00
00
00
00
00
00
00
00
00
00
00
00
00
00
00
00
00
00
00
00
00
00
00
00
00
00
00
00
00
00
00
00
00
00
00
00
00
00
00
00
00
00
00
00
00
00
00
00
00
00
00
00
00
00
00
00
00
00
00
00
00
00
00
00
00
00
00
00
00
00
00
00
00
00
00
00
00
00
00
00
00
00
00
00
00
00
00
00
00
00
00
00
00
00
00
00
00
00
00
00
00
00
00
00
00
00
00
00
00
00
00
00
00
00
00
00
00
00
00
00
00
00
00
00
00
00
00
00
00
00
00
00
00
00
00
00
00
00
00
00
00
00
00
00
00
00
00
00
00
00
00
00
00
00
00
00
00
00
00
00
00
00
00
00
00
00
00
00
00
00
00
00
00
00
00
00
00
00
00
00
00
00
00
00
00
00
00
00
00
00
00
00
00
00
00
00
00
00
00
00
00
00
00
00
00
00
00
00
00
00
00
00
00
00
00
00
00
00
00
00
00
00
00
00
00
00
00
00
00
00
00
00
00
00
00
00
00
00
00
00
00
00
00
00
00
00
00
00
00
00
00
00
00
00
00
00
00
00
00
00
00
00
00
00
00
00
00
00
00
00
00
00
00
00
00
00
00
00
00
00
00
00
00
00
00
00
00
00
00
00
00
00
00
00
00
00
00
00
00
00
00
00
00
00
00
00
00
00
00
00
00
00
00
00
00
00
00
00
00
00
00
00
00
00
00
00
00
00
00
00
00
00
00
00
00
00
00
00
00
00
00
00
00
00
00
00
00
00
00
00
00
00
00
00
00
00
00
00
00
00
00
00
00
00
00
00
00
00
00
00
00
00
00
00
00
00
00
00
00
00
00
00
00
00
00
00
00
00
00
00
00
00
00
00
00
00
00
00
00
00
00
00
00
00
00
00
00
00
00
00
00
00
00
00
00
00
00
00
00
00
00
00
00
00
00
00
00
00
00
00
00
00
00
00
00
00
00
00
00
00
00
00
00
00
00
00
00
00
00
00
00
00
00
00
00
00
00
00
00
00
00
00
00
00
00
00
00
00
00
00
00
00
00
00
00
00
00
00
00
00
00
00
00
00
00
00
00
00
00
00
00
00
00
00
00
00
00
00
00
00
00
00
00
00
00
00
00
00
00
00
00
00
00
00
00
00
00
00
00
00
00
00
00
00
00
00
00
00
00
00
00
00
00
00
00
00
00
00
00
00
00
00
00
00
00
00
00
00
00
00
00
00
00
00
00
00
00
00
00
00
00
00
00
00
00
00
00
00
00
00
00
00
00
00
00
00
00
00
00
00
00
00
00
00
00
00
00
00
00
00
00
00
00
00
00
00
00
00
00
00
00
00
00
00
00
00
00
00
00
00
00
00
00
00
00
00
00
00
00
00
00
00
00
00
00
00
00
00
00
00
00
00
00
00
00
00
00
00
00
00
00
00
00
00
00
00
00
00
00
00
00
00
00
00
00
00
00
00
00
00
00
00
00
00
00
00
00
00
00
00
00
00
00
00
00
00
00
00
00
00
00
00
00
00
00
00
00
00
00
00
00
00
00
00
00
00
00
00
00
00
00
00
00
00
00
00
00
00
00
00
00
00
00
00
00
00
00
00
00
00
00
00
00
00
00
00
00
00
00
00
00
00
00
00
00
00
00
00
00
00
00
00
00
00
00
00
00
00
00
00
00
00
00
00
00
00
00
00
00
00
00
00
00
00
00
00
00
00
00
00
00
00
00
00
00
00
00
00
00
00
00
00
00
00
00
00
00
00
00
00
00
00
00
00
00
00
00
00
00
00
00
00
00
00
00
00
00
00
00
00
00
00
00
00
00
00
00
00
00
00
00
00
00
00
00
00
00
00
00
00
00
00
00
00
00
00
00
00
00
00
00
00
00
00
00
00
00
00
00
00
00
00
00
00
00
00
00
00
00
00
00
00
00
00
00
00
00
00
00
00
00
00
00
00
00
00
00
00
00
00
00
00
00
00
00
00
00
00
00
00
00
00
00
00
00
00
00
00
00
00
00
00
00
00
00
00
00
00
00
00
00
00
00
00
00
00
00
00
00
00
00
00
00
00
00
00
00
00
00
00
00
00
00
00
00
00
00
00
00
00
00
00
00
00
00
00
00
00
00
00
00
00
00
00
00
00
00
00
00
00
00
00
00
00
00
00
00
00
00
00
00
00
00
00
00
00
00
00
00
00
00
00
00
00
00
00
00
00
00
00
00
00
00
00
00
00
00
00
00
00
00
00
00
00
00
00
00
00
00
00
00
00
00
00
00
00
00
00
00
00
00
00
00
00
00
00
00
00
00
00
00
00
00
00
00
00
00
00
00
00
00
00
00
00
00
00
00
00
00
00
00
00
00
00
00
00
00
00
00
00
00
00
00
00
00
00
00
00
00
00
00
00
00
00
00
00
00
00
00
00
00
00
00
00
00
00
00
00
00
00
00
00
00
00
00
00
00
00
00
00
00
00
00
00
00
00
00
00
00
00
00
00
00
00
00
00
00
00
00
00
00
00
00
00
00
00
00
00
00
00
00
00
00
00
00
00
00
00
00
00
00
00
00
00
00
00
00
00
00
00
00
00
00
00
00
00
00
00
00
00
00
00
00
00
00
00
00
00
00
00
00
00
00
00
00
00
00
00
00
00
00
00
00
8E
3D
3D
7A
47
01
3C
7B
46
F5
C8
8F
B2
5D
4D
9A
D7
7B
36
E1
AC
52
1F
C8
85
8D
45
F6
39
8A
42
F1
CF
7C
B4
07
8C
02
8B
05
8A
04
89
07
88
06
03
40
89
CF
06
43
8A
CC
05
F2
06
07
F3
05
F1
F0
04
80
4B
F9
C0
72
B9
0B
83
0C
86
09
85
0A
0E
4C
84
C1
09
0A
FF
FD
08
83
49
0F
75
0E
0D
AD
76
EC
9A
52
24
BE
C8
97
E1
7B
0D
C8
AC
7B
92
45
21
F6
E9
3E
5A
8D
46
01
CB
8C
45
02
CA
8D
44
03
8F
20
CA
E9
03
AF
45
66
8C
79
03
8D
F7
8C
F6
78
02
40
AB
F2
60
39
D2
8B
CF
06
43
8A
CC
05
07
26
42
EE
8A
05
F1
F0
04
CF
AA
89
B4
07
88
E2
39
70
E0
A9
72
3B
D9
90
4B
02
BC
93
3B
14
65
4A
87
A8
D9
F6
AB
4B
CE
5C
D9
65
E0
72
F7
90
73
4B
A8
3B
D8
E0
03
E6
96
4D
76
AD
DD
06
81
3C
28
95
4F
F2
AF
CA
DD
E4
F3
94
E5
76
07
4D
AF
F1
3D
05
04
AF
4D
9A
78
43
A1
35
D7
EC
0E
DD
A7
9E
D5
EC
43
7A
31
08
47
37
A7
D7
9A
EA
7A
0A
6E
53
B3
29
C9
F4
14
21
88
F0
59
BF
16
C5
86
F4
62
10
5F
64
29
12
B3
C5
1C
8E
1E
18
76
EC
50
89
35
26
9A
43
FF
D7
44
EC
7F
A1
32
9A
09
88
C5
FE
5F
64
29
12
A0
B4
D8
CC
F0
E4
6A
4C
29
86
E3
CB
81
5F
15
FE
6A
ED
B3
1B
1C
7A
D1
31
9A
EC
47
A7
0C
BF
62
29
C5
8E
53
18
3E
F0
A0
6E
21
EF
86
0F
53
B7
EB
6A
B3
C5
1C
29
86
E3
F4
14
10
59
F4
64
B3
23
8E
1E
BF
CC
88
FB
6E
1D
29
C5
8E
53
18
FE
56
B3
1B
64
29
12
C9
11
14
63
85
0D
EB
DC
3A
52
97
01
A6
30
E1
AC
7B
36
C8
52
24
8F
22
28
FD
5D
DC
42
C3
75
49
0D
31
85
FD
D5
B2
27
2C
D4
7B
97
38
52
11
DB
F5
28
20
1F
BE
2A
C8
2D
24
7B
36
38
3C
9A
A1
C5
5F
97
3F
06
E1
56
40
D4
0D
E1
7B
D4
FD
1F
05
98
25
8B
71
52
46
7B
B2
FA
31
52
7E
1F
24
8F
01
35
65
3A
F5
6C
C8
28
68
63
C8
6D
11
93
BE
DB
F5
EB
7B
42
B7
0D
C3
26
A7
7B
41
9E
36
46
BD
85
89
6E
2C
E2
D4
92
A6
B9
7B
48
C7
7B
30
CD
2E
E2
39
0A
A3
7D
3F
93
C9
F5
E2
B9
93
4C
5D
51
5C
6B
7D
C8
AB
8B
DA
F1
BC
36
70
34
D2
70
86
42
25
F9
7E
BC
8F
B7
07
E2
2D
48
2E
BB
E2
83
D7
C5
0C
EB
9D
59
63
C2
B4
68
B9
56
7B
0B
2A
E2
E2
46
A6
65
4A
D9
1B
27
37
D0
6F
AC
F6
72
F9
CE
AA
46
48
4B
BB
25
4B
1E
F8
87
41
A8
46
02
A9
FF
65
6C
E0
68
B9
65
12
29
11
10
79
3A
DC
84
EE
AD
6B
4A
C8
A4
EF
93
65
65
03
95
3B
4B
1E
F8
87
41
A8
46
02
A8
D4
E7
F3
E4
BD
87
45
11
84
4A
EF
FC
65
03
4A
57
81
BE
12
DB
7A
49
1A
3A
9B
8C
04
D1
3E
96
6B
4A
4A
E9
A4
80
73
0E
D9
5A
90
5C
6B
2B
08
72
78
C0
AE
54
72
14
F4
C4
7F
6A
5B
26
09
CC
FD
7E
3B
8F
F7
77
70
72
72
D0
CD
C4
09
3B
77
D8
72
D0
3B
98
64
52
14
20
BA
EB
A5
5B
C1
B8
D6
FA
8D
1D
7E
3B
3B
CA
F7
4B
1E
8E
A6
CE
5F
F8
35
83
AA
0D
41
A8
46
02
C2
48
4B
4B
B8
25
87
41
A8
46
02
FE
D4
1C
92
56
C5
1E
1E
30
A5
85
E7
2C
19
10
63
F8
F8
2F
3D
E4
B9
87
87
45
33
41
A8
46
02
7D
33
E6
22
DD
C6
CD
E1
4F
F7
8F
E6
64
4F
16
0E
23
97
B3
CD
D2
3C
2D
76
E7
95
40
28
A4
C8
28
E4
F8
56
D4
FE
95
F5
AF
BA
E6
8B
30
33
7B
E6
1D
D6
B8
3D
B4
09
C1
5B
A5
EB
52
64
25
BB
98
1F
E6
E6
A6
46
C4
2B
73
80
8A
5E
29
32
9C
D3
11
D4
A8
0D
A6
30
1E
7B
56
1E
4B
42
B0
5F
CE
A6
8E
3B
FD
C4
20
14
52
64
C4
C0
D0
72
D8
77
CF
99
7C
B2
08
B3
2B
D2
34
6A
4F
C4
C4
F4
BC
A9
1E
4B
42
B0
5F
CE
A6
8E
CE
F9
F1
EA
86
9A
B0
4E
72
7C
2B
6A
7F
C4
F4
2B
61
54
AE
C0
78
06
88
55
CF
94
53
47
71
15
0F
B3
2B
2B
74
34
1B
D9
5D
73
CB
18
97
B3
4A
AD
11
DB
12
BE
81
11
E0
03
65
FC
EF
63
2C
9D
85
FF
FE
A9
F5
C9
79
28
11
11
29
7D
65
9D
A9
79
10
11
29
A9
0B
B9
68
E0
6C
07
B4
C2
63
59
C5
D7
E8
69
83
FE
A9
A9
62
C9
1E
4B
02
46
A8
41
42
C3
1D
0D
AA
5F
CE
A6
8E
A5
30
1E
1E
C5
56
B0
5F
CE
A6
8E
7E
F9
A0
44
25
B8
4B
4B
48
C2
CC
F1
26
DE
D8
5B
42
42
6E
0C
86
64
B0
B0
4E
2E
5F
CE
A6
8E
4E
91
66
B6
E4
57
D7
12
81
69
D3
77
74
CA
34
7F
15
30
F4
F1
15
DD
8B
2B
98
E6
34
44
91
07
4B
F3
76
C2
B8
91
9A
1C
FE
4E
3D
A2
1D
AA
AF
B0
D4
95
2E
EA
91
CE
56
91
28
53
7E
DA
8D
F4
B2
74
92
86
77
74
CA
34
7F
15
30
F4
48
4E
C2
46
44
E9
41
02
4E
26
2F
79
B7
AF
78
B8
B4
45
CE
91
28
8E
9A
4E
EB
FE
4E
DB
EF
62
E9
C9
10
69
38
29
54
53
16
AC
5A
BF
D0
F6
53
DC
58
17
0F
13
6C
8C
82
21
18
D3
24
B3
A1
53
49
20
53
71
5A
D3
7C
D9
55
94
16
8C
D3
A1
ED
20
53
4D
66
96
99
13
73
F2
22
23
32
D3
18
4F
D3
24
74
77
8F
78
45
7E
34
7F
15
30
F4
3B
F1
DE
1D
72
77
FA
AF
77
6E
CA
50
D0
D8
8D
7F
15
30
F4
EC
74
B2
5F
74
92
55
DD
5B
94
37
CA
5A
CC
CA
C3
2B
34
14
E6
34
36
15
7F
F4
30
78
2D
F5
F8
28
AB
4F
22
94
3C
9C
FF
81
8B
64
E6
AF
F4
7C
14
DB
A9
11
4A
CA
74
A9
B6
69
6C
55
B4
F3
07
A9
79
D7
A9
65
6A
20
8D
2B
72
3B
98
F4
7C
14
DB
A9
11
4A
D7
A0
83
ED
0F
6A
F7
87
A7
0F
27
47
AE
DF
EF
F6
21
0F
49
67
0F
CD
EB
1C
9E
B7
E2
B9
7A
3E
0A
E3
DA
86
25
65
3A
DA
5B
BA
36
A4
5A
F7
8D
DA
B2
E5
DA
BC
35
10
C8
9B
39
93
CD
DD
89
9D
AD
57
E1
F9
7B
9E
89
AA
BD
89
E8
FB
0E
4F
D5
71
D2
23
7B
2E
E2
9D
BD
C2
9D
12
82
D5
71
7C
14
98
36
A6
7B
BD
3C
B5
FB
01
82
D5
13
FB
B3
82
17
71
DE
8E
56
DB
5F
E3
D0
14
E7
12
4A
B6
26
70
9A
FF
A1
5C
DC
D2
08
9D
FF
7D
EE
AE
56
68
FF
F5
63
0A
93
FF
FD
52
DD
25
5B
E6
EC
50
47
0C
D7
0B
35
3F
67
42
0C
E2
AA
B5
BC
F9
0C
BB
26
B7
48
0C
DC
01
5D
54
0E
CD
20
DD
F3
76
57
E9
4F
91
28
76
DB
BD
AD
BE
76
06
71
55
8B
94
34
1B
EA
91
F3
4E
45
BD
DB
F3
21
53
80
71
55
2B
92
D4
BD
91
5E
21
32
06
D3
55
13
D3
21
24
06
71
8E
A0
C5
E8
EB
1D
8E
1A
D9
97
18
7E
B7
3A
01
18
DC
6E
4A
18
5D
EF
18
5A
23
53
33
92
BA
A8
46
1E
91
E4
80
47
06
37
95
9C
06
50
F2
06
98
C1
DD
C5
AA
A0
2A
9F
89
FE
32
37
F2
ED
37
E3
DD
D0
0C
A0
F9
9F
A7
F3
F2
DD
F7
4F
A0
BB
B0
89
F3
40
9F
89
F3
BE
12
AD
B3
0F
88
71
56
BD
53
6F
82
06
95
06
4F
CD
22
B3
06
D5
CF
C5
8E
FE
BD
07
89
E2
82
23
AB
CD
D3
82
99
D5
4E
91
8E
B4
BD
2C
D5
CD
54
F7
BD
2C
89
E2
95
B9
8E
2E
56
2C
89
A7
D3
B3
23
D5
7F
63
94
67
DE
A6
D3
39
34
B7
F4
62
1A
BA
17
6E
6F
6D
D6
9E
A2
D1
6B
25
D0
31
47
A7
85
FD
49
DD
E4
3D
88
1A
1E
C4
12
FD
DC
3D
B7
0E
0A
7B
8F
BE
6C
25
54
8E
6A
29
C7
02
E9
61
D8
65
6F
C9
86
FE
71
1D
96
DD
EE
33

